param NumStages := 6 ;

param NumResources := 2 ;

param FixedCost :=
1    1    6299.59396335
1    2    1555.5756111
;

param MarginalCost :=
1    1    855.546648889
1    2    107.758050136
;

param Demand :=
1    84.4460962408
;

